n = 8;
m = 16;
a = [| 8, 2, 10, 11, 3, 9, 9, 15
     | 4, 14, 9, 6, 13, 3, 4, 8
     | 8, 2, 9, 5, 16, 2, 14, 6
     | 0, 6, 12, 7, 0, 0, 10, 0
     | 9, 4, 3, 2, 4, 14, 4, 6
     | 16, 1, 0, 0, 0, 0, 13, 0
     | 0, 6, 10, 2, 5, 0, 5, 3
     | 13, 5, 11, 8, 0, 11, 0, 0|];
s = [ 8, 19, 22, 24, 13, 20, 8, 16, 23, 16, 13, 3, 18, 11, 8, 13];
